5996
1866
3464
4188
8641
1499
2720
4682
6601
3648
1362
3637
5173
2699
9920
1643
9239
9978
2086
7633
5244
9050
2932
6758
4364
5400
7355
1158
6936
8713
7407
9258
3941
3438
10145
3081
9516
9478
9966
4022
9847
9979
631
3013
8302
3326
7741
1884
10066
1988
